p cnf 256 1
256 0
w 1 0.491602
w 2 1 1
w 2 -1 0
w 3 2 1
w 3 -2 0
w 4 3 1
w 4 -3 0
w 5 4 0.262211
w 5 -4 0.754013
w 6 5 1
w 6 -5 0
w 7 6 0.619276
w 7 -6 0.827199
w 8 7 0.539629
w 8 -7 0.951401
w 9 8 0.377691
w 9 -8 0.551547
w 10 9 0
w 10 -9 1
w 11 10 0
w 11 -10 1
w 12 11 0
w 12 -11 1
w 13 12 0.476952
w 13 -12 0.559436
w 14 13 1
w 14 -13 0
w 15 14 0.0875209
w 15 -14 0.175697
w 16 15 0.57859
w 16 -15 0.523487
w 17 1 1
w 17 -1 0
w 18 17 2 0
w 18 17 -2 1
w 18 -17 2 1
w 18 -17 -2 1
w 19 18 3 0
w 19 18 -3 1
w 19 -18 3 0
w 19 -18 -3 1
w 20 19 4 1
w 20 19 -4 1
w 20 -19 4 1
w 20 -19 -4 0
w 21 20 5 0.516331
w 21 20 -5 0.443026
w 21 -20 5 0.28779
w 21 -20 -5 0.993283
w 22 21 6 0
w 22 21 -6 0
w 22 -21 6 1
w 22 -21 -6 1
w 23 22 7 0
w 23 22 -7 0
w 23 -22 7 0
w 23 -22 -7 1
w 24 23 8 0.938522
w 24 23 -8 0.814445
w 24 -23 8 0.0834866
w 24 -23 -8 0.933836
w 25 24 9 1
w 25 24 -9 1
w 25 -24 9 0
w 25 -24 -9 1
w 26 25 10 1
w 26 25 -10 0
w 26 -25 10 1
w 26 -25 -10 1
w 27 26 11 0.386528
w 27 26 -11 0.201882
w 27 -26 11 0.283949
w 27 -26 -11 0.674318
w 28 27 12 1
w 28 27 -12 1
w 28 -27 12 0
w 28 -27 -12 1
w 29 28 13 1
w 29 28 -13 1
w 29 -28 13 0
w 29 -28 -13 0
w 30 29 14 0.214051
w 30 29 -14 0.894078
w 30 -29 14 0.737051
w 30 -29 -14 0.297537
w 31 30 15 0.965211
w 31 30 -15 0.465
w 31 -30 15 0.593113
w 31 -30 -15 0.146715
w 32 31 16 0.742546
w 32 31 -16 0.659254
w 32 -31 16 0.457603
w 32 -31 -16 0.599842
w 33 17 0
w 33 -17 1
w 34 33 18 0.546688
w 34 33 -18 0.582475
w 34 -33 18 0.660688
w 34 -33 -18 0.741852
w 35 34 19 0.654804
w 35 34 -19 0.898854
w 35 -34 19 0.117149
w 35 -34 -19 0.0562373
w 36 35 20 0
w 36 35 -20 0
w 36 -35 20 1
w 36 -35 -20 1
w 37 36 21 0.0430232
w 37 36 -21 0.679408
w 37 -36 21 0.955167
w 37 -36 -21 0.870937
w 38 37 22 0.420167
w 38 37 -22 0.46405
w 38 -37 22 0.791334
w 38 -37 -22 0.0880066
w 39 38 23 1
w 39 38 -23 0
w 39 -38 23 1
w 39 -38 -23 1
w 40 39 24 0.792809
w 40 39 -24 0.342081
w 40 -39 24 0.426611
w 40 -39 -24 0.453497
w 41 40 25 0
w 41 40 -25 1
w 41 -40 25 1
w 41 -40 -25 0
w 42 41 26 0
w 42 41 -26 0
w 42 -41 26 0
w 42 -41 -26 1
w 43 42 27 1
w 43 42 -27 1
w 43 -42 27 0
w 43 -42 -27 1
w 44 43 28 0.641081
w 44 43 -28 0.703132
w 44 -43 28 0.490114
w 44 -43 -28 0.729088
w 45 44 29 0.940702
w 45 44 -29 0.274697
w 45 -44 29 0.716166
w 45 -44 -29 0.736095
w 46 45 30 1
w 46 45 -30 0
w 46 -45 30 1
w 46 -45 -30 0
w 47 46 31 1
w 47 46 -31 1
w 47 -46 31 0
w 47 -46 -31 1
w 48 47 32 0
w 48 47 -32 0
w 48 -47 32 0
w 48 -47 -32 1
w 49 33 1
w 49 -33 0
w 50 49 34 0
w 50 49 -34 0
w 50 -49 34 1
w 50 -49 -34 0
w 51 50 35 0.956553
w 51 50 -35 0.303792
w 51 -50 35 0.700259
w 51 -50 -35 0.866281
w 52 51 36 0
w 52 51 -36 1
w 52 -51 36 0
w 52 -51 -36 0
w 53 52 37 0
w 53 52 -37 1
w 53 -52 37 1
w 53 -52 -37 0
w 54 53 38 0
w 54 53 -38 0
w 54 -53 38 0
w 54 -53 -38 1
w 55 54 39 1
w 55 54 -39 0
w 55 -54 39 1
w 55 -54 -39 0
w 56 55 40 0
w 56 55 -40 1
w 56 -55 40 1
w 56 -55 -40 0
w 57 56 41 0.557357
w 57 56 -41 0.712855
w 57 -56 41 0.314101
w 57 -56 -41 0.423638
w 58 57 42 0.289057
w 58 57 -42 0.0060851
w 58 -57 42 0.937938
w 58 -57 -42 0.382846
w 59 58 43 1
w 59 58 -43 1
w 59 -58 43 0
w 59 -58 -43 1
w 60 59 44 0.276068
w 60 59 -44 0.583356
w 60 -59 44 0.236018
w 60 -59 -44 0.636046
w 61 60 45 0
w 61 60 -45 0
w 61 -60 45 1
w 61 -60 -45 1
w 62 61 46 1
w 62 61 -46 1
w 62 -61 46 1
w 62 -61 -46 0
w 63 62 47 1
w 63 62 -47 1
w 63 -62 47 1
w 63 -62 -47 0
w 64 63 48 0.8109
w 64 63 -48 0.0117072
w 64 -63 48 0.538516
w 64 -63 -48 0.748839
w 65 49 0
w 65 -49 1
w 66 65 50 0.416634
w 66 65 -50 0.787424
w 66 -65 50 0.963125
w 66 -65 -50 0.918889
w 67 66 51 0
w 67 66 -51 1
w 67 -66 51 1
w 67 -66 -51 1
w 68 67 52 0.538991
w 68 67 -52 0.419934
w 68 -67 52 0.946923
w 68 -67 -52 0.691027
w 69 68 53 0
w 69 68 -53 1
w 69 -68 53 1
w 69 -68 -53 0
w 70 69 54 0.030793
w 70 69 -54 0.672805
w 70 -69 54 0.616933
w 70 -69 -54 0.563224
w 71 70 55 1
w 71 70 -55 0
w 71 -70 55 1
w 71 -70 -55 1
w 72 71 56 0.978088
w 72 71 -56 0.439827
w 72 -71 56 0.525186
w 72 -71 -56 0.941213
w 73 72 57 1
w 73 72 -57 1
w 73 -72 57 1
w 73 -72 -57 0
w 74 73 58 1
w 74 73 -58 0
w 74 -73 58 1
w 74 -73 -58 0
w 75 74 59 0.0948791
w 75 74 -59 0.949775
w 75 -74 59 0.00396854
w 75 -74 -59 0.0168793
w 76 75 60 0.898251
w 76 75 -60 0.0476723
w 76 -75 60 0.441834
w 76 -75 -60 0.515184
w 77 76 61 0.925539
w 77 76 -61 0.143824
w 77 -76 61 0.712636
w 77 -76 -61 0.158084
w 78 77 62 1
w 78 77 -62 1
w 78 -77 62 1
w 78 -77 -62 0
w 79 78 63 1
w 79 78 -63 1
w 79 -78 63 0
w 79 -78 -63 1
w 80 79 64 0.869459
w 80 79 -64 0.803479
w 80 -79 64 0.679688
w 80 -79 -64 0.593774
w 81 65 1
w 81 -65 0
w 82 81 66 0.0244712
w 82 81 -66 0.201892
w 82 -81 66 0.705532
w 82 -81 -66 0.7935
w 83 82 67 1
w 83 82 -67 0
w 83 -82 67 0
w 83 -82 -67 0
w 84 83 68 0
w 84 83 -68 1
w 84 -83 68 1
w 84 -83 -68 1
w 85 84 69 0.455128
w 85 84 -69 0.533014
w 85 -84 69 0.502718
w 85 -84 -69 0.532512
w 86 85 70 1
w 86 85 -70 0
w 86 -85 70 1
w 86 -85 -70 1
w 87 86 71 0.781236
w 87 86 -71 0.59915
w 87 -86 71 0.560825
w 87 -86 -71 0.855933
w 88 87 72 0.249477
w 88 87 -72 0.880404
w 88 -87 72 0.998966
w 88 -87 -72 0.955009
w 89 88 73 0.0991087
w 89 88 -73 0.708214
w 89 -88 73 0.909237
w 89 -88 -73 0.714436
w 90 89 74 1
w 90 89 -74 0
w 90 -89 74 1
w 90 -89 -74 0
w 91 90 75 1
w 91 90 -75 1
w 91 -90 75 1
w 91 -90 -75 0
w 92 91 76 1
w 92 91 -76 1
w 92 -91 76 0
w 92 -91 -76 0
w 93 92 77 0
w 93 92 -77 1
w 93 -92 77 1
w 93 -92 -77 1
w 94 93 78 0.251652
w 94 93 -78 0.926674
w 94 -93 78 0.560535
w 94 -93 -78 0.206662
w 95 94 79 0.659644
w 95 94 -79 0.914875
w 95 -94 79 0.509815
w 95 -94 -79 0.374079
w 96 95 80 0.579926
w 96 95 -80 0.847666
w 96 -95 80 0.13624
w 96 -95 -80 0.968993
w 97 81 0
w 97 -81 1
w 98 97 82 0.180191
w 98 97 -82 0.991327
w 98 -97 82 0.189896
w 98 -97 -82 0.611535
w 99 98 83 1
w 99 98 -83 0
w 99 -98 83 0
w 99 -98 -83 0
w 100 99 84 1
w 100 99 -84 1
w 100 -99 84 0
w 100 -99 -84 0
w 101 100 85 0
w 101 100 -85 0
w 101 -100 85 0
w 101 -100 -85 1
w 102 101 86 0.480909
w 102 101 -86 0.294311
w 102 -101 86 0.322879
w 102 -101 -86 0.468099
w 103 102 87 0.170546
w 103 102 -87 0.604339
w 103 -102 87 0.84323
w 103 -102 -87 0.417967
w 104 103 88 1
w 104 103 -88 1
w 104 -103 88 1
w 104 -103 -88 0
w 105 104 89 1
w 105 104 -89 1
w 105 -104 89 0
w 105 -104 -89 1
w 106 105 90 0.441303
w 106 105 -90 0.214909
w 106 -105 90 0.723776
w 106 -105 -90 0.698547
w 107 106 91 0.0831487
w 107 106 -91 0.882465
w 107 -106 91 0.232687
w 107 -106 -91 0.649183
w 108 107 92 0.181487
w 108 107 -92 0.130092
w 108 -107 92 0.961272
w 108 -107 -92 0.504366
w 109 108 93 0.83551
w 109 108 -93 0.674911
w 109 -108 93 0.20253
w 109 -108 -93 0.67874
w 110 109 94 1
w 110 109 -94 0
w 110 -109 94 0
w 110 -109 -94 0
w 111 110 95 0
w 111 110 -95 1
w 111 -110 95 1
w 111 -110 -95 0
w 112 111 96 0.308041
w 112 111 -96 0.572362
w 112 -111 96 0.935449
w 112 -111 -96 0.0318176
w 113 97 0
w 113 -97 1
w 114 113 98 1
w 114 113 -98 0
w 114 -113 98 1
w 114 -113 -98 0
w 115 114 99 1
w 115 114 -99 0
w 115 -114 99 0
w 115 -114 -99 0
w 116 115 100 1
w 116 115 -100 0
w 116 -115 100 1
w 116 -115 -100 0
w 117 116 101 0.256345
w 117 116 -101 0.341638
w 117 -116 101 0.81249
w 117 -116 -101 0.157076
w 118 117 102 0
w 118 117 -102 0
w 118 -117 102 1
w 118 -117 -102 1
w 119 118 103 0.670309
w 119 118 -103 0.844334
w 119 -118 103 0.131405
w 119 -118 -103 0.549288
w 120 119 104 0.284778
w 120 119 -104 0.660954
w 120 -119 104 0.723449
w 120 -119 -104 0.105112
w 121 120 105 0.61769
w 121 120 -105 0.886719
w 121 -120 105 0.751624
w 121 -120 -105 0.110122
w 122 121 106 0.224054
w 122 121 -106 0.805085
w 122 -121 106 0.799691
w 122 -121 -106 0.789362
w 123 122 107 1
w 123 122 -107 1
w 123 -122 107 1
w 123 -122 -107 0
w 124 123 108 1
w 124 123 -108 1
w 124 -123 108 1
w 124 -123 -108 0
w 125 124 109 0.351414
w 125 124 -109 0.880468
w 125 -124 109 0.40452
w 125 -124 -109 0.48282
w 126 125 110 1
w 126 125 -110 0
w 126 -125 110 0
w 126 -125 -110 1
w 127 126 111 0.0448155
w 127 126 -111 0.70496
w 127 -126 111 0.759429
w 127 -126 -111 0.79644
w 128 127 112 0.263264
w 128 127 -112 0.0204937
w 128 -127 112 0.620166
w 128 -127 -112 0.0629545
w 129 113 0.739506
w 129 -113 0.493661
w 130 129 114 0.200484
w 130 129 -114 0.736857
w 130 -129 114 0.0583456
w 130 -129 -114 0.675782
w 131 130 115 1
w 131 130 -115 1
w 131 -130 115 0
w 131 -130 -115 0
w 132 131 116 0.449235
w 132 131 -116 0.383497
w 132 -131 116 0.196164
w 132 -131 -116 0.813056
w 133 132 117 0
w 133 132 -117 0
w 133 -132 117 0
w 133 -132 -117 1
w 134 133 118 0.783234
w 134 133 -118 0.128129
w 134 -133 118 0.420367
w 134 -133 -118 0.0464974
w 135 134 119 0
w 135 134 -119 1
w 135 -134 119 0
w 135 -134 -119 1
w 136 135 120 0.814041
w 136 135 -120 0.980523
w 136 -135 120 0.33997
w 136 -135 -120 0.872387
w 137 136 121 0.824498
w 137 136 -121 0.42165
w 137 -136 121 0.542247
w 137 -136 -121 0.869213
w 138 137 122 0
w 138 137 -122 1
w 138 -137 122 1
w 138 -137 -122 0
w 139 138 123 0
w 139 138 -123 1
w 139 -138 123 0
w 139 -138 -123 0
w 140 139 124 0.663959
w 140 139 -124 0.251511
w 140 -139 124 0.0574805
w 140 -139 -124 0.710456
w 141 140 125 1
w 141 140 -125 1
w 141 -140 125 1
w 141 -140 -125 0
w 142 141 126 1
w 142 141 -126 1
w 142 -141 126 0
w 142 -141 -126 1
w 143 142 127 0.46669
w 143 142 -127 0.057129
w 143 -142 127 0.456701
w 143 -142 -127 0.789017
w 144 143 128 1
w 144 143 -128 0
w 144 -143 128 0
w 144 -143 -128 0
w 145 129 0.938482
w 145 -129 0.232487
w 146 145 130 0.575596
w 146 145 -130 0.896446
w 146 -145 130 0.0371914
w 146 -145 -130 0.633076
w 147 146 131 0.437325
w 147 146 -131 0.73109
w 147 -146 131 0.42681
w 147 -146 -131 0.795938
w 148 147 132 0.849831
w 148 147 -132 0.968591
w 148 -147 132 0.467719
w 148 -147 -132 0.612821
w 149 148 133 0
w 149 148 -133 1
w 149 -148 133 0
w 149 -148 -133 1
w 150 149 134 0.269338
w 150 149 -134 0.405515
w 150 -149 134 0.432161
w 150 -149 -134 0.76418
w 151 150 135 1
w 151 150 -135 1
w 151 -150 135 1
w 151 -150 -135 0
w 152 151 136 1
w 152 151 -136 1
w 152 -151 136 1
w 152 -151 -136 0
w 153 152 137 1
w 153 152 -137 1
w 153 -152 137 0
w 153 -152 -137 0
w 154 153 138 0.826201
w 154 153 -138 0.128417
w 154 -153 138 0.963143
w 154 -153 -138 0.293921
w 155 154 139 0.976774
w 155 154 -139 0.276522
w 155 -154 139 0.941548
w 155 -154 -139 0.457095
w 156 155 140 1
w 156 155 -140 0
w 156 -155 140 1
w 156 -155 -140 0
w 157 156 141 0
w 157 156 -141 0
w 157 -156 141 1
w 157 -156 -141 0
w 158 157 142 0.660402
w 158 157 -142 0.499721
w 158 -157 142 0.199858
w 158 -157 -142 0.421691
w 159 158 143 0.0516346
w 159 158 -143 0.620305
w 159 -158 143 0.202748
w 159 -158 -143 0.330221
w 160 159 144 0.0289492
w 160 159 -144 0.458637
w 160 -159 144 0.577999
w 160 -159 -144 0.32287
w 161 145 0
w 161 -145 1
w 162 161 146 0.141423
w 162 161 -146 0.0118681
w 162 -161 146 0.915645
w 162 -161 -146 0.739983
w 163 162 147 0.637413
w 163 162 -147 0.770702
w 163 -162 147 0.228914
w 163 -162 -147 0.635301
w 164 163 148 0
w 164 163 -148 1
w 164 -163 148 0
w 164 -163 -148 0
w 165 164 149 0
w 165 164 -149 1
w 165 -164 149 1
w 165 -164 -149 1
w 166 165 150 0
w 166 165 -150 0
w 166 -165 150 1
w 166 -165 -150 0
w 167 166 151 0.466858
w 167 166 -151 0.827043
w 167 -166 151 0.0306786
w 167 -166 -151 0.0216317
w 168 167 152 0
w 168 167 -152 0
w 168 -167 152 0
w 168 -167 -152 1
w 169 168 153 0.979493
w 169 168 -153 0.682787
w 169 -168 153 0.000714194
w 169 -168 -153 0.614794
w 170 169 154 0.836183
w 170 169 -154 0.186399
w 170 -169 154 0.610088
w 170 -169 -154 0.626635
w 171 170 155 1
w 171 170 -155 1
w 171 -170 155 0
w 171 -170 -155 0
w 172 171 156 0.346106
w 172 171 -156 0.644573
w 172 -171 156 0.0310565
w 172 -171 -156 0.234965
w 173 172 157 0
w 173 172 -157 0
w 173 -172 157 1
w 173 -172 -157 0
w 174 173 158 0.402224
w 174 173 -158 0.0646403
w 174 -173 158 0.756955
w 174 -173 -158 0.744304
w 175 174 159 0.528756
w 175 174 -159 0.723797
w 175 -174 159 0.659512
w 175 -174 -159 0.52947
w 176 175 160 1
w 176 175 -160 0
w 176 -175 160 0
w 176 -175 -160 0
w 177 161 0.943397
w 177 -161 0.989496
w 178 177 162 0.0155014
w 178 177 -162 0.158846
w 178 -177 162 0.268123
w 178 -177 -162 0.361608
w 179 178 163 0.29918
w 179 178 -163 0.596573
w 179 -178 163 0.952165
w 179 -178 -163 0.16104
w 180 179 164 0
w 180 179 -164 0
w 180 -179 164 1
w 180 -179 -164 0
w 181 180 165 0
w 181 180 -165 0
w 181 -180 165 1
w 181 -180 -165 1
w 182 181 166 0.754455
w 182 181 -166 0.837032
w 182 -181 166 0.13687
w 182 -181 -166 0.23699
w 183 182 167 1
w 183 182 -167 0
w 183 -182 167 1
w 183 -182 -167 0
w 184 183 168 1
w 184 183 -168 0
w 184 -183 168 1
w 184 -183 -168 1
w 185 184 169 1
w 185 184 -169 0
w 185 -184 169 0
w 185 -184 -169 1
w 186 185 170 0.161493
w 186 185 -170 0.586126
w 186 -185 170 0.899188
w 186 -185 -170 0.49167
w 187 186 171 0.677995
w 187 186 -171 0.566151
w 187 -186 171 0.799287
w 187 -186 -171 0.985557
w 188 187 172 0
w 188 187 -172 0
w 188 -187 172 1
w 188 -187 -172 1
w 189 188 173 1
w 189 188 -173 1
w 189 -188 173 0
w 189 -188 -173 1
w 190 189 174 0
w 190 189 -174 1
w 190 -189 174 0
w 190 -189 -174 1
w 191 190 175 1
w 191 190 -175 0
w 191 -190 175 0
w 191 -190 -175 1
w 192 191 176 1
w 192 191 -176 1
w 192 -191 176 1
w 192 -191 -176 0
w 193 177 1
w 193 -177 0
w 194 193 178 0
w 194 193 -178 1
w 194 -193 178 0
w 194 -193 -178 0
w 195 194 179 0.213151
w 195 194 -179 0.517363
w 195 -194 179 0.435063
w 195 -194 -179 0.238423
w 196 195 180 0.555407
w 196 195 -180 0.458667
w 196 -195 180 0.448941
w 196 -195 -180 0.99486
w 197 196 181 1
w 197 196 -181 1
w 197 -196 181 0
w 197 -196 -181 1
w 198 197 182 0
w 198 197 -182 0
w 198 -197 182 1
w 198 -197 -182 0
w 199 198 183 0.137184
w 199 198 -183 0.635964
w 199 -198 183 0.714984
w 199 -198 -183 0.222668
w 200 199 184 0.119989
w 200 199 -184 0.874302
w 200 -199 184 0.0178534
w 200 -199 -184 0.510551
w 201 200 185 0.662184
w 201 200 -185 0.723702
w 201 -200 185 0.407728
w 201 -200 -185 0.0972472
w 202 201 186 0.0882515
w 202 201 -186 0.652654
w 202 -201 186 0.420792
w 202 -201 -186 0.537193
w 203 202 187 0.903907
w 203 202 -187 0.375312
w 203 -202 187 0.559782
w 203 -202 -187 0.483799
w 204 203 188 0.670832
w 204 203 -188 0.531974
w 204 -203 188 0.745127
w 204 -203 -188 0.214202
w 205 204 189 0.7331
w 205 204 -189 0.351386
w 205 -204 189 0.216945
w 205 -204 -189 0.448084
w 206 205 190 0.14421
w 206 205 -190 0.568073
w 206 -205 190 0.448356
w 206 -205 -190 0.162064
w 207 206 191 0
w 207 206 -191 1
w 207 -206 191 0
w 207 -206 -191 1
w 208 207 192 0.76445
w 208 207 -192 0.834701
w 208 -207 192 0.574149
w 208 -207 -192 0.185242
w 209 193 1
w 209 -193 0
w 210 209 194 1
w 210 209 -194 0
w 210 -209 194 1
w 210 -209 -194 1
w 211 210 195 0
w 211 210 -195 1
w 211 -210 195 1
w 211 -210 -195 1
w 212 211 196 0
w 212 211 -196 1
w 212 -211 196 1
w 212 -211 -196 1
w 213 212 197 0.0402755
w 213 212 -197 0.209122
w 213 -212 197 0.905191
w 213 -212 -197 0.378997
w 214 213 198 1
w 214 213 -198 1
w 214 -213 198 0
w 214 -213 -198 0
w 215 214 199 0.529014
w 215 214 -199 0.657208
w 215 -214 199 0.332041
w 215 -214 -199 0.750678
w 216 215 200 0.0792471
w 216 215 -200 0.532124
w 216 -215 200 0.319305
w 216 -215 -200 0.41143
w 217 216 201 0.424228
w 217 216 -201 0.488741
w 217 -216 201 0.650881
w 217 -216 -201 0.110131
w 218 217 202 1
w 218 217 -202 1
w 218 -217 202 0
w 218 -217 -202 0
w 219 218 203 1
w 219 218 -203 0
w 219 -218 203 1
w 219 -218 -203 0
w 220 219 204 0.30253
w 220 219 -204 0.99692
w 220 -219 204 0.805385
w 220 -219 -204 0.257395
w 221 220 205 1
w 221 220 -205 1
w 221 -220 205 1
w 221 -220 -205 0
w 222 221 206 0.872452
w 222 221 -206 0.176821
w 222 -221 206 0.0692108
w 222 -221 -206 0.191757
w 223 222 207 0.0536122
w 223 222 -207 0.615985
w 223 -222 207 0.0769913
w 223 -222 -207 0.704493
w 224 223 208 0.376142
w 224 223 -208 0.37324
w 224 -223 208 0.739096
w 224 -223 -208 0.933788
w 225 209 0.799134
w 225 -209 0.318
w 226 225 210 0.0682943
w 226 225 -210 0.607404
w 226 -225 210 0.614789
w 226 -225 -210 0.370825
w 227 226 211 0.420175
w 227 226 -211 0.62822
w 227 -226 211 0.0732097
w 227 -226 -211 0.185707
w 228 227 212 0
w 228 227 -212 1
w 228 -227 212 0
w 228 -227 -212 1
w 229 228 213 1
w 229 228 -213 1
w 229 -228 213 1
w 229 -228 -213 0
w 230 229 214 0.125343
w 230 229 -214 0.779032
w 230 -229 214 0.605615
w 230 -229 -214 0.501486
w 231 230 215 0
w 231 230 -215 0
w 231 -230 215 1
w 231 -230 -215 0
w 232 231 216 0.72103
w 232 231 -216 0.212139
w 232 -231 216 0.360678
w 232 -231 -216 0.33582
w 233 232 217 0.965001
w 233 232 -217 0.755994
w 233 -232 217 0.211183
w 233 -232 -217 0.0382111
w 234 233 218 0.625812
w 234 233 -218 0.237515
w 234 -233 218 0.224982
w 234 -233 -218 0.577528
w 235 234 219 1
w 235 234 -219 0
w 235 -234 219 0
w 235 -234 -219 0
w 236 235 220 0.452284
w 236 235 -220 0.858779
w 236 -235 220 0.452026
w 236 -235 -220 0.0578989
w 237 236 221 1
w 237 236 -221 1
w 237 -236 221 1
w 237 -236 -221 0
w 238 237 222 0.548812
w 238 237 -222 0.11151
w 238 -237 222 0.758593
w 238 -237 -222 0.90949
w 239 238 223 1
w 239 238 -223 0
w 239 -238 223 0
w 239 -238 -223 0
w 240 239 224 0
w 240 239 -224 0
w 240 -239 224 1
w 240 -239 -224 1
w 241 225 0
w 241 -225 1
w 242 241 226 1
w 242 241 -226 0
w 242 -241 226 1
w 242 -241 -226 0
w 243 242 227 0.479555
w 243 242 -227 0.542457
w 243 -242 227 0.00756885
w 243 -242 -227 0.0838541
w 244 243 228 0.803107
w 244 243 -228 0.474334
w 244 -243 228 0.491521
w 244 -243 -228 0.351919
w 245 244 229 0.250114
w 245 244 -229 0.261409
w 245 -244 229 0.0331732
w 245 -244 -229 0.59167
w 246 245 230 1
w 246 245 -230 0
w 246 -245 230 1
w 246 -245 -230 1
w 247 246 231 0
w 247 246 -231 0
w 247 -246 231 1
w 247 -246 -231 1
w 248 247 232 0.433576
w 248 247 -232 0.690582
w 248 -247 232 0.595147
w 248 -247 -232 0.461105
w 249 248 233 1
w 249 248 -233 0
w 249 -248 233 1
w 249 -248 -233 0
w 250 249 234 1
w 250 249 -234 0
w 250 -249 234 0
w 250 -249 -234 1
w 251 250 235 0
w 251 250 -235 1
w 251 -250 235 0
w 251 -250 -235 1
w 252 251 236 0.802354
w 252 251 -236 0.354361
w 252 -251 236 0.14038
w 252 -251 -236 0.850956
w 253 252 237 0.463342
w 253 252 -237 0.0497748
w 253 -252 237 0.487414
w 253 -252 -237 0.542383
w 254 253 238 0.294035
w 254 253 -238 0.975959
w 254 -253 238 0.398665
w 254 -253 -238 0.889181
w 255 254 239 0
w 255 254 -239 1
w 255 -254 239 0
w 255 -254 -239 1
w 256 255 240 0
w 256 255 -240 1
w 256 -255 240 0
w 256 -255 -240 1